Version identifier: 22.1.1.0 | 2022-11-28 | 9160aff4d
CPXPARAM_ClockType                               1
CPXPARAM_Read_DataCheck                          1
CPXPARAM_Threads                                 1
CPXPARAM_TimeLimit                               7200
CPXPARAM_MIP_Tolerances_AbsMIPGap                0
CPXPARAM_MIP_Tolerances_MIPGap                   0
CPXPARAM_MIP_Tolerances_Integrality              0
Tried aggregator 4 times.
MIP Presolve eliminated 184997 rows and 4683 columns.
MIP Presolve modified 206 coefficients.
Aggregator did 1113 substitutions.
Reduced MIP has 6266 rows, 4329 columns, and 25709 nonzeros.
Reduced MIP has 4329 binaries, 0 generals, 0 SOSs, and 0 indicators.
Presolve time = 0.35 sec. (221.12 ticks)
Probing time = 0.01 sec. (5.41 ticks)
Tried aggregator 1 time.
Detecting symmetries...
MIP Presolve eliminated 4 rows and 0 columns.
MIP Presolve modified 66 coefficients.
Reduced MIP has 6262 rows, 4329 columns, and 25606 nonzeros.
Reduced MIP has 4329 binaries, 0 generals, 0 SOSs, and 0 indicators.
Presolve time = 0.03 sec. (18.42 ticks)
Probing time = 0.01 sec. (5.22 ticks)
Clique table members: 15848.
MIP emphasis: balance optimality and feasibility.
MIP search method: dynamic search.
Parallel mode: none, using 1 thread.
Root relaxation solution time = 1.04 sec. (823.16 ticks)

        Nodes                                         Cuts/
   Node  Left     Objective  IInf  Best Integer    Best Bound    ItCnt     Gap

      0     0       88.0000  1090                     88.0000     3766         
      0     0       86.0000   898                    Cuts: 48    16883         
      0     0       86.0000   968                   Cuts: 154    18920         
      0     0       86.0000   800                 ZeroHalf: 2    19040         
      0     0       86.0000   911                    Cuts: 37    20228         
*     0+    0                           72.0000       86.0000            19.44%
Detecting symmetries...
      0     2       86.0000   524       72.0000       86.0000    20273   19.44%
Elapsed time = 11.71 sec. (9017.28 ticks, tree = 0.01 MB, solutions = 1)
      1     3       86.0000   805       72.0000       86.0000    29866   19.44%
      2     4       86.0000   815       72.0000       86.0000    33061   19.44%
      3     5       86.0000   732       72.0000       86.0000    35860   19.44%
      4     6       86.0000   887       72.0000       86.0000    37685   19.44%
      5     7       86.0000   822       72.0000       86.0000    38574   19.44%
      6     8       86.0000   817       72.0000       86.0000    40062   19.44%
      7     9       83.1640   777       72.0000       86.0000    44748   19.44%
      9    11       86.0000   746       72.0000       86.0000    45273   19.44%
     10    12       85.0000   698       72.0000       86.0000    45659   19.44%
     16    18       86.0000   621       72.0000       86.0000    49297   19.44%
Elapsed time = 22.01 sec. (17118.28 ticks, tree = 0.68 MB, solutions = 1)
     35    33       83.9108   338       72.0000       86.0000    55799   19.44%
     73    48       85.8000   281       72.0000       86.0000    62191   19.44%
     97    52       86.0000   336       72.0000       86.0000    67377   19.44%
    125    66       84.7500   305       72.0000       86.0000    71430   19.44%
    156    77        cutoff             72.0000       86.0000    76139   19.44%
    178    85       84.0000   232       72.0000       86.0000    80480   19.44%
    214    85    infeasible             72.0000       86.0000    84118   19.44%
    242    97       86.0000   416       72.0000       86.0000    89188   19.44%
    278   117       85.7457   400       72.0000       86.0000    95090   19.44%
    324   145       82.0000   101       72.0000       86.0000   101589   19.44%
Elapsed time = 38.06 sec. (26840.40 ticks, tree = 4.20 MB, solutions = 1)
    371   162       84.8889   369       72.0000       86.0000   107608   19.44%
    401   176       84.9343   328       72.0000       86.0000   112942   19.44%
    439   194       80.8571   265       72.0000       86.0000   118792   19.44%
    473   204       83.6310   439       72.0000       86.0000   124079   19.44%
    511   224       82.5109   220       72.0000       86.0000   131370   19.44%
    552   243       85.8020   352       72.0000       86.0000   137907   19.44%
    596   263       86.0000   797       72.0000       86.0000   144579   19.44%
    618   278    infeasible             72.0000       86.0000   148483   19.44%
    645   295       85.8308   446       72.0000       86.0000   153302   19.44%
    681   331       80.8816   436       72.0000       86.0000   158094   19.44%
Elapsed time = 53.01 sec. (36592.65 ticks, tree = 7.40 MB, solutions = 1)
    705   341       84.5977   456       72.0000       86.0000   164071   19.44%
    730   358       85.8000   450       72.0000       86.0000   168425   19.44%
    758   372    infeasible             72.0000       86.0000   173302   19.44%
    764   376       85.3333   506       72.0000       86.0000   175374   19.44%
    801   403       84.1217   613       72.0000       86.0000   180703   19.44%
    813   405       85.7953   480       72.0000       86.0000   184684   19.44%
    831   417       86.0000   583       72.0000       86.0000   189893   19.44%
    849   435       81.4298   566       72.0000       86.0000   193262   19.44%
    870   450       83.9333   516       72.0000       86.0000   197761   19.44%
    887   457       85.0000   536       72.0000       86.0000   201630   19.44%
Elapsed time = 69.01 sec. (46659.93 ticks, tree = 9.35 MB, solutions = 1)
    906   472       86.0000   789       72.0000       86.0000   205578   19.44%
    918   480    infeasible             72.0000       86.0000   209761   19.44%
    931   485        cutoff             72.0000       86.0000   213763   19.44%
    960   504       86.0000   677       72.0000       86.0000   217870   19.44%
    996   530       82.0000   281       72.0000       86.0000   222426   19.44%

Performing restart 1

Repeating presolve.
Tried aggregator 3 times.
MIP Presolve eliminated 721 rows and 477 columns.
MIP Presolve modified 2 coefficients.
Aggregator did 121 substitutions.
Reduced MIP has 5420 rows, 3731 columns, and 22045 nonzeros.
Reduced MIP has 3731 binaries, 0 generals, 0 SOSs, and 0 indicators.
Presolve time = 0.07 sec. (45.04 ticks)
Tried aggregator 2 times.
MIP Presolve eliminated 9 rows and 7 columns.
MIP Presolve modified 24 coefficients.
Aggregator did 3 substitutions.
Reduced MIP has 5408 rows, 3721 columns, and 21996 nonzeros.
Reduced MIP has 3721 binaries, 0 generals, 0 SOSs, and 0 indicators.
Presolve time = 0.06 sec. (39.85 ticks)
Represolve time = 0.44 sec. (212.43 ticks)
   1023     0       86.0000   845       72.0000      Cuts: 33   231980   19.44%
   1023     0       86.0000   965       72.0000     Cuts: 190   234579   19.44%
   1023     0       86.0000   546       72.0000       Cuts: 6   234738   19.44%
   1023     0       86.0000   679       72.0000     Cuts: 186   236193   19.44%
   1023     0       86.0000   556       72.0000       Cuts: 3   236523   19.44%
   1023     0       86.0000   853       72.0000     Cuts: 195   237436   19.44%
   1023     0       86.0000   853       72.0000      Cuts: 15   238199   19.44%
   1023     2       86.0000   643       72.0000       86.0000   238199   19.44%
   1024     3       86.0000   756       72.0000       86.0000   257935   19.44%
   1026     5       86.0000   817       72.0000       86.0000   265726   19.44%
   1027     6       86.0000   957       72.0000       86.0000   267129   19.44%
   1028     7       86.0000   798       72.0000       86.0000   271335   19.44%
Elapsed time = 107.18 sec. (75323.84 ticks, tree = 0.06 MB, solutions = 1)
   1030     9       86.0000  1031       72.0000       86.0000   274178   19.44%
   1032    11       86.0000   535       72.0000       86.0000   276657   19.44%
   1033    10    infeasible             72.0000       86.0000   286244   19.44%
   1037    14       86.0000   422       72.0000       86.0000   288379   19.44%
   1043    18       86.0000   482       72.0000       86.0000   292686   19.44%
   1051    24       85.0000   441       72.0000       86.0000   296646   19.44%
   1063    28       86.0000   471       72.0000       86.0000   299704   19.44%
   1075    40       86.0000   442       72.0000       86.0000   302752   19.44%
   1087    50       84.0000   486       72.0000       86.0000   306018   19.44%
   1104    57       86.0000   546       72.0000       86.0000   311014   19.44%
Elapsed time = 123.76 sec. (87040.76 ticks, tree = 0.20 MB, solutions = 1)
   1123    72       82.0000   229       72.0000       86.0000   315064   19.44%
   1152    76    infeasible             72.0000       86.0000   320239   19.44%
   1168    80       84.0000   410       72.0000       86.0000   325748   19.44%
   1183    81       85.0000   409       72.0000       86.0000   329776   19.44%
   1203    91       85.0000   359       72.0000       86.0000   334629   19.44%
   1215    97       85.0000   372       72.0000       86.0000   339754   19.44%
   1239   107       86.0000   423       72.0000       86.0000   345571   19.44%
   1253   113       83.0000   330       72.0000       86.0000   351008   19.44%
   1264   118       85.0000   494       72.0000       86.0000   355025   19.44%
   1279   129       85.0000   306       72.0000       86.0000   359488   19.44%
Elapsed time = 145.84 sec. (101578.90 ticks, tree = 0.42 MB, solutions = 1)
   1293   131    infeasible             72.0000       86.0000   365618   19.44%
   1303   137        cutoff             72.0000       86.0000   369148   19.44%
   1312   146       84.0000   554       72.0000       86.0000   372523   19.44%
   1330   160       85.0000   491       72.0000       86.0000   375344   19.44%
   1345   171    infeasible             72.0000       86.0000   379044   19.44%
   1357   183       85.0000   560       72.0000       86.0000   381542   19.44%
   1374   193       85.7500   265       72.0000       86.0000   384998   19.44%
   1395   208       85.0000   397       72.0000       86.0000   390019   19.44%
   1413   214       85.0000   467       72.0000       86.0000   394678   19.44%
   1430   223       85.0000   425       72.0000       86.0000   400145   19.44%
Elapsed time = 162.17 sec. (111433.45 ticks, tree = 0.68 MB, solutions = 1)
   1469   258       83.7500   361       72.0000       86.0000   404760   19.44%
   1503   272        cutoff             72.0000       86.0000   413494   19.44%
   1528   287       85.0000   383       72.0000       86.0000   420212   19.44%
   1547   292    infeasible             72.0000       86.0000   425453   19.44%
   1566   307       86.0000   454       72.0000       86.0000   429032   19.44%
   1585   316    infeasible             72.0000       86.0000   434517   19.44%
   1594   319       84.0000   644       72.0000       86.0000   438226   19.44%
   1617   342       83.0000   597       72.0000       86.0000   440673   19.44%
   1645   362    infeasible             72.0000       86.0000   446021   19.44%
   1648   363       86.0000   686       72.0000       86.0000   449952   19.44%
Elapsed time = 177.52 sec. (121722.23 ticks, tree = 1.49 MB, solutions = 1)
   1664   379       86.0000   561       72.0000       86.0000   452074   19.44%
   1672   381       82.0000   469       72.0000       86.0000   457738   19.44%
   1709   412       86.0000   617       72.0000       86.0000   461366   19.44%
   1733   434       83.4905   274       72.0000       86.0000   465391   19.44%
   1756   449       85.9344   429       72.0000       86.0000   469822   19.44%
*  1778   444      integral     0       80.0000       86.0000   471846    7.50%
   1788   440       86.0000   321       80.0000       86.0000   475123    7.50%
*  1795   381      integral     0       82.0000       86.0000   475803    4.88%
   1819   385       86.0000   358       82.0000       86.0000   481030    4.88%
   1843   392       84.0000    86       82.0000       86.0000   486450    4.88%
   1864   391       84.0000   439       82.0000       86.0000   492634    4.88%
   1941   426       85.0000   482       82.0000       86.0000   509568    4.88%
Elapsed time = 197.99 sec. (134794.18 ticks, tree = 1.74 MB, solutions = 3)
   1987   448       85.4164   505       82.0000       86.0000   529920    4.88%
   2119   509        cutoff             82.0000       86.0000   546567    4.88%
   2255   551       84.0000   306       82.0000       86.0000   567834    4.88%
*  2310     1      integral     0       86.0000       86.0000   573373    0.00%

Clique cuts applied:  42
Implied bound cuts applied:  2
Zero-half cuts applied:  11

Root node processing (before b&c):
  Real time             =   11.59 sec. (8960.67 ticks)
Sequential b&c:
  Real time             =  207.58 sec. (138638.33 ticks)
                          ------------
Total (root+branch&cut) =  219.17 sec. (147598.99 ticks)
Solution is feasible.

---------------------
@@@ MIP_optimal
>>> Benchmark mc2024_track1_153.cnf k 2 OPT 86 TimeCost 259.9960889816284 TimeSolve 220.048903465271 TimeRead 0.16807842254638672 TimeTrans 39.779107093811035
